experiment/data/lkh-res/Vrp-Set-A-n48/Vrp-Set-A-n48-lkh/0.lkh1.vrp
NAME : 0
COMMENT : CVRP Instance
TYPE : CVRP
DIMENSION : 48
EDGE_WEIGHT_TYPE : EUC_2D
CAPACITY : 100
NODE_COORD_SECTION
1	4700	500
2	100	1900
3	9700	3500
4	2300	7900
5	7700	8700
6	300	900
7	500	2700
8	4100	5300
9	5100	8700
10	6700	7300
11	8900	4500
12	7100	9900
13	1100	100
14	8500	8500
15	5700	1100
16	5700	8500
17	7100	3300
18	6100	1300
19	3900	1500
20	1300	5900
21	4300	9900
22	8700	7300
23	1100	3700
24	2100	1100
25	7700	8100
26	300	6300
27	4700	9500
28	5300	7500
29	7300	5500
30	8100	7100
31	8900	7500
32	1100	900
33	2700	3700
34	9500	5900
35	6300	6300
36	3700	2100
37	3300	4700
38	2300	6300
39	1300	5500
40	4700	9300
41	4500	4300
42	8300	700
43	6900	9100
44	1300	1100
45	3700	1500
46	5300	5900
47	9700	8300
48	7500	3100
DEMAND_SECTION
1	0
2	20
3	14
4	5
5	11
6	22
7	25
8	2
9	18
10	10
11	26
12	14
13	22
14	9
15	11
16	18
17	24
18	15
19	23
20	16
21	14
22	8
23	5
24	12
25	8
26	16
27	12
28	15
29	9
30	2
31	10
32	2
33	3
34	20
35	3
36	13
37	25
38	23
39	8
40	16
41	9
42	14
43	4
44	13
45	7
46	16
47	18
48	16
DEPOT_SECTION
1
-1
EOF
