experiment/data/lkh-res/Vrp-Set-A-n48/Vrp-Set-A-n48-lkh/0.lkh1.tour
NAME : 0.107433.tour
COMMENT : Length = 107433
COMMENT : Found by LKH-3 [Keld Helsgaun] Tue Apr  9 00:44:06 2024
TYPE : TOUR
DIMENSION : 54
TOUR_SECTION
1
29
30
22
31
14
47
34
17
51
46
28
16
43
12
5
25
10
35
50
45
36
19
49
38
4
21
27
40
9
8
41
52
42
3
11
48
18
15
54
13
6
2
32
44
24
53
7
23
26
20
39
37
33
-1
EOF
